49
1 0 7
2 0 14
2 1 17
3 0 11
3 1 5
3 2 45
4 0 29
4 1 2
4 2 47
4 3 31
5 0 48
5 1 37
5 2 16
5 3 1
5 4 7
6 0 16
6 1 35
6 2 20
6 3 49
6 4 1
6 5 7
7 0 13
7 1 29
7 2 31
7 3 30
7 4 42
7 5 42
7 6 26
8 0 18
8 1 37
8 2 1
8 3 25
8 4 34
8 5 36
8 6 47
8 7 42
9 0 7
9 1 8
9 2 39
9 3 47
9 4 11
9 5 45
9 6 45
9 7 28
9 8 40
10 0 4
10 1 37
10 2 16
10 3 12
10 4 26
10 5 4
10 6 19
10 7 10
10 8 34
10 9 3
11 0 44
11 1 30
11 2 19
11 3 33
11 4 8
11 5 29
11 6 17
11 7 41
11 8 17
11 9 10
11 10 40
12 0 4
12 1 4
12 2 3
12 3 29
12 4 18
12 5 35
12 6 22
12 7 46
12 8 49
12 9 27
12 10 36
12 11 43
13 0 6
13 1 27
13 2 15
13 3 5
13 4 29
13 5 23
13 6 11
13 7 46
13 8 13
13 9 13
13 10 21
13 11 3
13 12 25
14 0 7
14 1 46
14 2 37
14 3 9
14 4 38
14 5 32
14 6 6
14 7 44
14 8 24
14 9 33
14 10 7
14 11 17
14 12 21
14 13 47
15 0 2
15 1 13
15 2 1
15 3 5
15 4 49
15 5 6
15 6 8
15 7 22
15 8 1
15 9 25
15 10 4
15 11 26
15 12 4
15 13 5
15 14 43
16 0 1
16 1 13
16 2 27
16 3 39
16 4 19
16 5 33
16 6 18
16 7 6
16 8 47
16 9 36
16 10 13
16 11 12
16 12 10
16 13 25
16 14 3
16 15 49
17 0 12
17 1 29
17 2 3
17 3 26
17 4 12
17 5 32
17 6 2
17 7 15
17 8 39
17 9 28
17 10 30
17 11 48
17 12 29
17 13 39
17 14 47
17 15 4
17 16 15
18 0 12
18 1 16
18 2 5
18 3 45
18 4 14
18 5 12
18 6 4
18 7 14
18 8 6
18 9 1
18 10 42
18 11 33
18 12 38
18 13 24
18 14 43
18 15 21
18 16 34
18 17 12
19 0 33
19 1 3
19 2 23
19 3 43
19 4 46
19 5 15
19 6 16
19 7 40
19 8 30
19 9 14
19 10 1
19 11 48
19 12 9
19 13 19
19 14 46
19 15 3
19 16 24
19 17 34
19 18 2
20 0 25
20 1 25
20 2 12
20 3 42
20 4 10
20 5 49
20 6 8
20 7 11
20 8 26
20 9 44
20 10 21
20 11 2
20 12 23
20 13 43
20 14 16
20 15 11
20 16 29
20 17 26
20 18 8
20 19 38
21 0 21
21 1 1
21 2 9
21 3 43
21 4 16
21 5 11
21 6 40
21 7 38
21 8 47
21 9 29
21 10 19
21 11 23
21 12 47
21 13 11
21 14 16
21 15 19
21 16 20
21 17 12
21 18 49
21 19 9
21 20 11
22 0 4
22 1 13
22 2 33
22 3 24
22 4 10
22 5 46
22 6 28
22 7 20
22 8 44
22 9 45
22 10 16
22 11 19
22 12 25
22 13 39
22 14 15
22 15 27
22 16 41
22 17 45
22 18 16
22 19 20
22 20 3
22 21 24
23 0 44
23 1 39
23 2 36
23 3 49
23 4 44
23 5 1
23 6 41
23 7 11
23 8 35
23 9 7
23 10 14
23 11 17
23 12 38
23 13 24
23 14 5
23 15 12
23 16 48
23 17 4
23 18 48
23 19 40
23 20 40
23 21 30
23 22 26
24 0 43
24 1 47
24 2 36
24 3 42
24 4 49
24 5 14
24 6 18
24 7 16
24 8 24
24 9 14
24 10 44
24 11 6
24 12 8
24 13 48
24 14 28
24 15 28
24 16 33
24 17 23
24 18 26
24 19 5
24 20 38
24 21 18
24 22 11
24 23 9
25 0 14
25 1 17
25 2 9
25 3 30
25 4 8
25 5 28
25 6 11
25 7 16
25 8 37
25 9 44
25 10 45
25 11 17
25 12 38
25 13 2
25 14 28
25 15 19
25 16 15
25 17 49
25 18 6
25 19 32
25 20 14
25 21 24
25 22 42
25 23 20
25 24 20
26 0 21
26 1 34
26 2 32
26 3 28
26 4 12
26 5 23
26 6 49
26 7 4
26 8 45
26 9 18
26 10 15
26 11 24
26 12 46
26 13 43
26 14 41
26 15 24
26 16 23
26 17 13
26 18 6
26 19 22
26 20 32
26 21 41
26 22 30
26 23 20
26 24 27
26 25 26
27 0 38
27 1 39
27 2 15
27 3 21
27 4 21
27 5 44
27 6 33
27 7 14
27 8 12
27 9 2
27 10 31
27 11 8
27 12 44
27 13 47
27 14 48
27 15 36
27 16 2
27 17 44
27 18 13
27 19 1
27 20 21
27 21 16
27 22 49
27 23 21
27 24 35
27 25 8
27 26 24
28 0 16
28 1 21
28 2 12
28 3 21
28 4 35
28 5 34
28 6 14
28 7 7
28 8 33
28 9 24
28 10 19
28 11 12
28 12 25
28 13 15
28 14 46
28 15 49
28 16 37
28 17 32
28 18 37
28 19 33
28 20 47
28 21 1
28 22 16
28 23 26
28 24 6
28 25 35
28 26 40
28 27 30
29 0 37
29 1 5
29 2 9
29 3 4
29 4 42
29 5 12
29 6 20
29 7 43
29 8 6
29 9 15
29 10 42
29 11 11
29 12 14
29 13 5
29 14 4
29 15 39
29 16 21
29 17 1
29 18 44
29 19 42
29 20 26
29 21 22
29 22 8
29 23 36
29 24 36
29 25 24
29 26 40
29 27 12
29 28 4
30 0 11
30 1 8
30 2 49
30 3 31
30 4 22
30 5 12
30 6 42
30 7 9
30 8 5
30 9 48
30 10 31
30 11 9
30 12 44
30 13 16
30 14 11
30 15 20
30 16 4
30 17 26
30 18 25
30 19 15
30 20 12
30 21 27
30 22 26
30 23 39
30 24 23
30 25 48
30 26 17
30 27 45
30 28 23
30 29 40
31 0 6
31 1 19
31 2 16
31 3 26
31 4 11
31 5 35
31 6 46
31 7 38
31 8 47
31 9 13
31 10 29
31 11 40
31 12 37
31 13 39
31 14 48
31 15 28
31 16 46
31 17 45
31 18 26
31 19 40
31 20 38
31 21 40
31 22 9
31 23 47
31 24 45
31 25 8
31 26 39
31 27 19
31 28 44
31 29 45
31 30 31
32 0 22
32 1 47
32 2 21
32 3 46
32 4 13
32 5 24
32 6 13
32 7 25
32 8 10
32 9 2
32 10 25
32 11 23
32 12 37
32 13 18
32 14 22
32 15 47
32 16 40
32 17 3
32 18 40
32 19 18
32 20 44
32 21 1
32 22 17
32 23 11
32 24 37
32 25 17
32 26 47
32 27 6
32 28 14
32 29 36
32 30 44
32 31 45
33 0 41
33 1 18
33 2 40
33 3 15
33 4 13
33 5 44
33 6 19
33 7 34
33 8 14
33 9 49
33 10 7
33 11 29
33 12 1
33 13 22
33 14 27
33 15 5
33 16 42
33 17 3
33 18 21
33 19 16
33 20 43
33 21 25
33 22 14
33 23 36
33 24 27
33 25 13
33 26 18
33 27 30
33 28 23
33 29 45
33 30 7
33 31 24
33 32 13
34 0 27
34 1 33
34 2 39
34 3 7
34 4 13
34 5 16
34 6 17
34 7 13
34 8 38
34 9 20
34 10 29
34 11 18
34 12 33
34 13 38
34 14 7
34 15 18
34 16 41
34 17 32
34 18 31
34 19 13
34 20 2
34 21 15
34 22 37
34 23 6
34 24 3
34 25 37
34 26 30
34 27 49
34 28 5
34 29 9
34 30 20
34 31 31
34 32 4
34 33 40
35 0 33
35 1 30
35 2 43
35 3 38
35 4 23
35 5 13
35 6 8
35 7 44
35 8 35
35 9 23
35 10 5
35 11 10
35 12 8
35 13 10
35 14 29
35 15 18
35 16 40
35 17 12
35 18 42
35 19 31
35 20 43
35 21 37
35 22 40
35 23 48
35 24 21
35 25 24
35 26 12
35 27 15
35 28 22
35 29 29
35 30 37
35 31 7
35 32 43
35 33 34
35 34 16
36 0 2
36 1 45
36 2 27
36 3 26
36 4 38
36 5 28
36 6 8
36 7 49
36 8 37
36 9 16
36 10 32
36 11 29
36 12 27
36 13 21
36 14 1
36 15 15
36 16 18
36 17 49
36 18 25
36 19 9
36 20 32
36 21 10
36 22 15
36 23 19
36 24 31
36 25 44
36 26 43
36 27 12
36 28 42
36 29 43
36 30 4
36 31 9
36 32 26
36 33 14
36 34 38
36 35 33
37 0 7
37 1 46
37 2 34
37 3 32
37 4 19
37 5 34
37 6 36
37 7 45
37 8 34
37 9 46
37 10 3
37 11 32
37 12 32
37 13 5
37 14 22
37 15 1
37 16 20
37 17 27
37 18 44
37 19 22
37 20 24
37 21 13
37 22 29
37 23 48
37 24 38
37 25 13
37 26 15
37 27 43
37 28 40
37 29 31
37 30 14
37 31 27
37 32 13
37 33 28
37 34 3
37 35 4
37 36 19
38 0 49
38 1 24
38 2 15
38 3 49
38 4 20
38 5 17
38 6 45
38 7 7
38 8 47
38 9 49
38 10 16
38 11 10
38 12 23
38 13 7
38 14 3
38 15 34
38 16 9
38 17 26
38 18 45
38 19 30
38 20 39
38 21 7
38 22 22
38 23 4
38 24 11
38 25 20
38 26 2
38 27 41
38 28 43
38 29 13
38 30 43
38 31 31
38 32 20
38 33 11
38 34 41
38 35 37
38 36 16
38 37 33
39 0 31
39 1 4
39 2 4
39 3 9
39 4 43
39 5 28
39 6 4
39 7 23
39 8 10
39 9 39
39 10 3
39 11 18
39 12 13
39 13 11
39 14 45
39 15 38
39 16 16
39 17 15
39 18 20
39 19 33
39 20 39
39 21 17
39 22 40
39 23 28
39 24 48
39 25 47
39 26 14
39 27 41
39 28 41
39 29 23
39 30 20
39 31 1
39 32 27
39 33 37
39 34 16
39 35 46
39 36 4
39 37 46
39 38 16
40 0 15
40 1 8
40 2 20
40 3 47
40 4 49
40 5 17
40 6 45
40 7 36
40 8 8
40 9 5
40 10 28
40 11 16
40 12 9
40 13 49
40 14 11
40 15 30
40 16 41
40 17 20
40 18 15
40 19 3
40 20 2
40 21 27
40 22 16
40 23 15
40 24 31
40 25 26
40 26 32
40 27 38
40 28 16
40 29 40
40 30 44
40 31 44
40 32 13
40 33 9
40 34 21
40 35 15
40 36 41
40 37 15
40 38 36
40 39 34
41 0 15
41 1 15
41 2 18
41 3 33
41 4 42
41 5 4
41 6 13
41 7 27
41 8 35
41 9 4
41 10 6
41 11 44
41 12 37
41 13 46
41 14 15
41 15 23
41 16 27
41 17 13
41 18 38
41 19 25
41 20 45
41 21 4
41 22 23
41 23 45
41 24 20
41 25 17
41 26 20
41 27 36
41 28 2
41 29 45
41 30 35
41 31 20
41 32 24
41 33 11
41 34 41
41 35 27
41 36 34
41 37 29
41 38 39
41 39 38
41 40 4
42 0 32
42 1 28
42 2 28
42 3 10
42 4 28
42 5 29
42 6 42
42 7 32
42 8 1
42 9 1
42 10 17
42 11 48
42 12 43
42 13 19
42 14 37
42 15 32
42 16 11
42 17 36
42 18 40
42 19 41
42 20 19
42 21 12
42 22 21
42 23 30
42 24 31
42 25 4
42 26 13
42 27 3
42 28 45
42 29 2
42 30 4
42 31 7
42 32 7
42 33 42
42 34 9
42 35 21
42 36 13
42 37 37
42 38 39
42 39 6
42 40 27
42 41 13
43 0 32
43 1 39
43 2 46
43 3 20
43 4 37
43 5 42
43 6 40
43 7 47
43 8 43
43 9 38
43 10 7
43 11 9
43 12 48
43 13 20
43 14 30
43 15 22
43 16 47
43 17 48
43 18 6
43 19 16
43 20 31
43 21 39
43 22 43
43 23 24
43 24 46
43 25 17
43 26 45
43 27 5
43 28 32
43 29 31
43 30 36
43 31 41
43 32 9
43 33 47
43 34 28
43 35 27
43 36 5
43 37 15
43 38 10
43 39 5
43 40 38
43 41 3
43 42 25
44 0 17
44 1 40
44 2 38
44 3 15
44 4 38
44 5 28
44 6 22
44 7 31
44 8 23
44 9 38
44 10 48
44 11 9
44 12 26
44 13 2
44 14 10
44 15 15
44 16 47
44 17 36
44 18 31
44 19 21
44 20 35
44 21 34
44 22 32
44 23 16
44 24 20
44 25 28
44 26 42
44 27 19
44 28 43
44 29 32
44 30 36
44 31 33
44 32 29
44 33 49
44 34 4
44 35 36
44 36 34
44 37 25
44 38 32
44 39 6
44 40 45
44 41 44
44 42 40
44 43 10
45 0 46
45 1 14
45 2 36
45 3 44
45 4 44
45 5 49
45 6 33
45 7 12
45 8 38
45 9 45
45 10 44
45 11 45
45 12 21
45 13 13
45 14 13
45 15 3
45 16 1
45 17 37
45 18 4
45 19 14
45 20 14
45 21 27
45 22 19
45 23 28
45 24 46
45 25 23
45 26 12
45 27 13
45 28 7
45 29 2
45 30 1
45 31 30
45 32 40
45 33 1
45 34 25
45 35 26
45 36 1
45 37 41
45 38 32
45 39 16
45 40 6
45 41 12
45 42 42
45 43 44
45 44 9
46 0 22
46 1 23
46 2 20
46 3 29
46 4 9
46 5 39
46 6 16
46 7 20
46 8 22
46 9 35
46 10 42
46 11 28
46 12 9
46 13 36
46 14 22
46 15 44
46 16 43
46 17 2
46 18 26
46 19 33
46 20 41
46 21 12
46 22 14
46 23 16
46 24 44
46 25 4
46 26 5
46 27 19
46 28 23
46 29 7
46 30 24
46 31 30
46 32 16
46 33 41
46 34 41
46 35 6
46 36 33
46 37 18
46 38 45
46 39 47
46 40 10
46 41 20
46 42 42
46 43 16
46 44 13
46 45 30
47 0 33
47 1 22
47 2 15
47 3 26
47 4 7
47 5 36
47 6 16
47 7 47
47 8 11
47 9 43
47 10 40
47 11 21
47 12 6
47 13 47
47 14 33
47 15 49
47 16 17
47 17 20
47 18 38
47 19 25
47 20 41
47 21 5
47 22 20
47 23 12
47 24 2
47 25 10
47 26 38
47 27 17
47 28 40
47 29 41
47 30 46
47 31 39
47 32 10
47 33 44
47 34 20
47 35 21
47 36 31
47 37 11
47 38 45
47 39 19
47 40 9
47 41 10
47 42 2
47 43 16
47 44 38
47 45 13
47 46 45
48 0 37
48 1 16
48 2 10
48 3 9
48 4 32
48 5 33
48 6 5
48 7 38
48 8 11
48 9 17
48 10 46
48 11 13
48 12 13
48 13 38
48 14 46
48 15 39
48 16 37
48 17 22
48 18 25
48 19 4
48 20 19
48 21 40
48 22 33
48 23 33
48 24 10
48 25 29
48 26 22
48 27 28
48 28 44
48 29 7
48 30 5
48 31 4
48 32 46
48 33 17
48 34 44
48 35 10
48 36 34
48 37 10
48 38 4
48 39 8
48 40 33
48 41 45
48 42 39
48 43 38
48 44 1
48 45 14
48 46 45
48 47 34
